p cnf 200 1110
-101 -13 0
-101 77 0
-101 -99 0
-101 35 0
-101 15 0
-101 -45 0
-101 85 0
-101 8 0
-101 98 0
-101 -71 0
101 13 -77 99 -35 -15 45 -85 -8 -98 71 0
-102 -36 0
-102 -78 0
-102 -25 0
-102 -94 0
-102 -3 0
-102 69 0
-102 -41 0
-102 68 0
-102 4 0
-102 -80 0
102 36 78 25 94 3 -69 41 -68 -4 80 0
-103 96 0
-103 -38 0
-103 -53 0
-103 79 0
-103 -55 0
-103 77 0
-103 27 0
-103 -88 0
-103 -22 0
-103 93 0
103 -96 38 53 -79 55 -77 -27 88 22 -93 0
-104 43 0
-104 -69 0
-104 -87 0
-104 -13 0
-104 38 0
-104 14 0
-104 -29 0
-104 -20 0
-104 76 0
-104 -65 0
104 -43 69 87 13 -38 -14 29 20 -76 65 0
-105 56 0
-105 -88 0
-105 33 0
-105 -59 0
-105 11 0
-105 98 0
-105 73 0
-105 -53 0
-105 57 0
-105 82 0
105 -56 88 -33 59 -11 -98 -73 53 -57 -82 0
-106 85 0
-106 25 0
-106 89 0
-106 -17 0
-106 -12 0
-106 93 0
-106 34 0
-106 39 0
-106 71 0
-106 -100 0
106 -85 -25 -89 17 12 -93 -34 -39 -71 100 0
-107 -51 0
-107 -53 0
-107 -46 0
-107 -18 0
-107 -76 0
-107 -62 0
-107 -97 0
-107 90 0
-107 48 0
-107 87 0
107 51 53 46 18 76 62 97 -90 -48 -87 0
-108 95 0
-108 63 0
-108 1 0
-108 -16 0
-108 7 0
-108 -73 0
-108 24 0
-108 -62 0
-108 19 0
-108 31 0
108 -95 -63 -1 16 -7 73 -24 62 -19 -31 0
-109 -51 0
-109 72 0
-109 -99 0
-109 44 0
-109 -28 0
-109 36 0
-109 -56 0
-109 60 0
-109 85 0
-109 -45 0
109 51 -72 99 -44 28 -36 56 -60 -85 45 0
-110 -51 0
-110 94 0
-110 -79 0
-110 72 0
-110 5 0
-110 -12 0
-110 -16 0
-110 -85 0
-110 -78 0
-110 -100 0
110 51 -94 79 -72 -5 12 16 85 78 100 0
101 102 103 104 105 106 107 108 109 110 0
-111 -38 0
-111 89 0
-111 53 0
-111 -6 0
-111 72 0
-111 -84 0
-111 -96 0
-111 10 0
-111 -31 0
-111 61 0
111 38 -89 -53 6 -72 84 96 -10 31 -61 0
-112 80 0
-112 37 0
-112 23 0
-112 -50 0
-112 -93 0
-112 -18 0
-112 -8 0
-112 -5 0
-112 15 0
-112 90 0
112 -80 -37 -23 50 93 18 8 5 -15 -90 0
-113 -18 0
-113 74 0
-113 97 0
-113 -22 0
-113 -67 0
-113 85 0
-113 98 0
-113 -47 0
-113 -13 0
-113 -7 0
113 18 -74 -97 22 67 -85 -98 47 13 7 0
-114 63 0
-114 -64 0
-114 -59 0
-114 42 0
-114 -49 0
-114 -4 0
-114 -81 0
-114 50 0
-114 -98 0
-114 -75 0
114 -63 64 59 -42 49 4 81 -50 98 75 0
-115 70 0
-115 -28 0
-115 77 0
-115 75 0
-115 7 0
-115 -79 0
-115 -43 0
-115 45 0
-115 -63 0
-115 5 0
115 -70 28 -77 -75 -7 79 43 -45 63 -5 0
-116 34 0
-116 -83 0
-116 -62 0
-116 35 0
-116 -63 0
-116 8 0
-116 -84 0
-116 54 0
-116 29 0
-116 -49 0
116 -34 83 62 -35 63 -8 84 -54 -29 49 0
-117 73 0
-117 -99 0
-117 -78 0
-117 71 0
-117 -55 0
-117 64 0
-117 94 0
-117 -68 0
-117 -9 0
-117 11 0
117 -73 99 78 -71 55 -64 -94 68 9 -11 0
-118 -40 0
-118 58 0
-118 92 0
-118 -55 0
-118 -90 0
-118 -32 0
-118 38 0
-118 -51 0
-118 -11 0
-118 -49 0
118 40 -58 -92 55 90 32 -38 51 11 49 0
-119 68 0
-119 -100 0
-119 -30 0
-119 81 0
-119 -13 0
-119 8 0
-119 85 0
-119 -28 0
-119 -75 0
-119 27 0
119 -68 100 30 -81 13 -8 -85 28 75 -27 0
-120 64 0
-120 -60 0
-120 -78 0
-120 30 0
-120 13 0
-120 52 0
-120 -2 0
-120 29 0
-120 -48 0
-120 -46 0
120 -64 60 78 -30 -13 -52 2 -29 48 46 0
111 112 113 114 115 116 117 118 119 120 0
-121 60 0
-121 -31 0
-121 -7 0
-121 23 0
-121 15 0
-121 54 0
-121 61 0
-121 72 0
-121 -32 0
-121 9 0
121 -60 31 7 -23 -15 -54 -61 -72 32 -9 0
-122 88 0
-122 14 0
-122 -37 0
-122 -8 0
-122 -51 0
-122 43 0
-122 79 0
-122 68 0
-122 -17 0
-122 -3 0
122 -88 -14 37 8 51 -43 -79 -68 17 3 0
-123 -34 0
-123 -28 0
-123 24 0
-123 -77 0
-123 -72 0
-123 85 0
-123 60 0
-123 -20 0
-123 -11 0
-123 40 0
123 34 28 -24 77 72 -85 -60 20 11 -40 0
-124 22 0
-124 44 0
-124 -61 0
-124 3 0
-124 -51 0
-124 8 0
-124 28 0
-124 14 0
-124 57 0
-124 -95 0
124 -22 -44 61 -3 51 -8 -28 -14 -57 95 0
-125 -25 0
-125 -10 0
-125 42 0
-125 -13 0
-125 50 0
-125 29 0
-125 -74 0
-125 -33 0
-125 -54 0
-125 -34 0
125 25 10 -42 13 -50 -29 74 33 54 34 0
-126 -55 0
-126 -15 0
-126 65 0
-126 47 0
-126 92 0
-126 -96 0
-126 -7 0
-126 99 0
-126 48 0
-126 -90 0
126 55 15 -65 -47 -92 96 7 -99 -48 90 0
-127 23 0
-127 -24 0
-127 42 0
-127 -63 0
-127 -46 0
-127 -16 0
-127 -76 0
-127 -62 0
-127 59 0
-127 37 0
127 -23 24 -42 63 46 16 76 62 -59 -37 0
-128 -69 0
-128 -27 0
-128 53 0
-128 90 0
-128 -61 0
-128 46 0
-128 -62 0
-128 40 0
-128 14 0
-128 -41 0
128 69 27 -53 -90 61 -46 62 -40 -14 41 0
-129 8 0
-129 68 0
-129 -86 0
-129 -92 0
-129 100 0
-129 -62 0
-129 85 0
-129 -49 0
-129 -16 0
-129 9 0
129 -8 -68 86 92 -100 62 -85 49 16 -9 0
-130 -38 0
-130 66 0
-130 82 0
-130 -15 0
-130 -50 0
-130 55 0
-130 -21 0
-130 -76 0
-130 18 0
-130 46 0
130 38 -66 -82 15 50 -55 21 76 -18 -46 0
121 122 123 124 125 126 127 128 129 130 0
-131 57 0
-131 92 0
-131 -38 0
-131 -31 0
-131 -5 0
-131 -79 0
-131 74 0
-131 34 0
-131 60 0
-131 67 0
131 -57 -92 38 31 5 79 -74 -34 -60 -67 0
-132 -82 0
-132 -3 0
-132 -38 0
-132 -53 0
-132 90 0
-132 -11 0
-132 87 0
-132 69 0
-132 -51 0
-132 -79 0
132 82 3 38 53 -90 11 -87 -69 51 79 0
-133 -70 0
-133 -83 0
-133 50 0
-133 -85 0
-133 60 0
-133 -45 0
-133 67 0
-133 91 0
-133 -52 0
-133 20 0
133 70 83 -50 85 -60 45 -67 -91 52 -20 0
-134 60 0
-134 84 0
-134 -86 0
-134 52 0
-134 -29 0
-134 72 0
-134 26 0
-134 43 0
-134 34 0
-134 -14 0
134 -60 -84 86 -52 29 -72 -26 -43 -34 14 0
-135 -76 0
-135 -46 0
-135 -10 0
-135 -33 0
-135 -47 0
-135 17 0
-135 64 0
-135 -57 0
-135 68 0
-135 73 0
135 76 46 10 33 47 -17 -64 57 -68 -73 0
-136 2 0
-136 -41 0
-136 45 0
-136 37 0
-136 12 0
-136 -76 0
-136 -39 0
-136 -83 0
-136 67 0
-136 -34 0
136 -2 41 -45 -37 -12 76 39 83 -67 34 0
-137 26 0
-137 -66 0
-137 -84 0
-137 90 0
-137 -10 0
-137 -28 0
-137 -88 0
-137 -78 0
-137 86 0
-137 2 0
137 -26 66 84 -90 10 28 88 78 -86 -2 0
-138 87 0
-138 -36 0
-138 -91 0
-138 -64 0
-138 -30 0
-138 1 0
-138 -74 0
-138 -17 0
-138 39 0
-138 -66 0
138 -87 36 91 64 30 -1 74 17 -39 66 0
-139 19 0
-139 36 0
-139 73 0
-139 -52 0
-139 30 0
-139 79 0
-139 -70 0
-139 -61 0
-139 49 0
-139 -89 0
139 -19 -36 -73 52 -30 -79 70 61 -49 89 0
-140 -44 0
-140 74 0
-140 -59 0
-140 -92 0
-140 29 0
-140 -89 0
-140 -85 0
-140 -67 0
-140 47 0
-140 -42 0
140 44 -74 59 92 -29 89 85 67 -47 42 0
131 132 133 134 135 136 137 138 139 140 0
-141 95 0
-141 38 0
-141 75 0
-141 -22 0
-141 -33 0
-141 100 0
-141 -68 0
-141 17 0
-141 88 0
-141 -1 0
141 -95 -38 -75 22 33 -100 68 -17 -88 1 0
-142 13 0
-142 -94 0
-142 68 0
-142 75 0
-142 -23 0
-142 93 0
-142 16 0
-142 57 0
-142 7 0
-142 -47 0
142 -13 94 -68 -75 23 -93 -16 -57 -7 47 0
-143 61 0
-143 -8 0
-143 -37 0
-143 80 0
-143 66 0
-143 75 0
-143 -55 0
-143 -70 0
-143 -56 0
-143 -28 0
143 -61 8 37 -80 -66 -75 55 70 56 28 0
-144 -24 0
-144 28 0
-144 -72 0
-144 -75 0
-144 40 0
-144 34 0
-144 -77 0
-144 -3 0
-144 68 0
-144 -44 0
144 24 -28 72 75 -40 -34 77 3 -68 44 0
-145 81 0
-145 26 0
-145 80 0
-145 1 0
-145 69 0
-145 91 0
-145 38 0
-145 31 0
-145 -23 0
-145 67 0
145 -81 -26 -80 -1 -69 -91 -38 -31 23 -67 0
-146 -38 0
-146 95 0
-146 -53 0
-146 11 0
-146 -5 0
-146 99 0
-146 73 0
-146 -41 0
-146 80 0
-146 31 0
146 38 -95 53 -11 5 -99 -73 41 -80 -31 0
-147 48 0
-147 -24 0
-147 -40 0
-147 75 0
-147 -9 0
-147 -7 0
-147 97 0
-147 61 0
-147 16 0
-147 -62 0
147 -48 24 40 -75 9 7 -97 -61 -16 62 0
-148 -84 0
-148 -4 0
-148 57 0
-148 -10 0
-148 67 0
-148 -26 0
-148 81 0
-148 59 0
-148 -38 0
-148 7 0
148 84 4 -57 10 -67 26 -81 -59 38 -7 0
-149 -89 0
-149 77 0
-149 69 0
-149 -12 0
-149 -71 0
-149 46 0
-149 58 0
-149 28 0
-149 50 0
-149 35 0
149 89 -77 -69 12 71 -46 -58 -28 -50 -35 0
-150 -1 0
-150 23 0
-150 75 0
-150 28 0
-150 -96 0
-150 31 0
-150 32 0
-150 95 0
-150 -18 0
-150 -53 0
150 1 -23 -75 -28 96 -31 -32 -95 18 53 0
141 142 143 144 145 146 147 148 149 150 0
-151 66 0
-151 -69 0
-151 -95 0
-151 -57 0
-151 96 0
-151 -9 0
-151 -88 0
-151 -18 0
-151 53 0
-151 60 0
151 -66 69 95 57 -96 9 88 18 -53 -60 0
-152 37 0
-152 26 0
-152 -11 0
-152 62 0
-152 -2 0
-152 75 0
-152 -6 0
-152 -56 0
-152 73 0
-152 8 0
152 -37 -26 11 -62 2 -75 6 56 -73 -8 0
-153 -97 0
-153 29 0
-153 -74 0
-153 2 0
-153 14 0
-153 -11 0
-153 50 0
-153 71 0
-153 -44 0
-153 -81 0
153 97 -29 74 -2 -14 11 -50 -71 44 81 0
-154 -9 0
-154 -28 0
-154 -10 0
-154 -19 0
-154 -82 0
-154 -74 0
-154 23 0
-154 -79 0
-154 -67 0
-154 78 0
154 9 28 10 19 82 74 -23 79 67 -78 0
-155 74 0
-155 -56 0
-155 87 0
-155 -98 0
-155 7 0
-155 -90 0
-155 17 0
-155 10 0
-155 57 0
-155 35 0
155 -74 56 -87 98 -7 90 -17 -10 -57 -35 0
-156 40 0
-156 -86 0
-156 -58 0
-156 -13 0
-156 -15 0
-156 28 0
-156 -2 0
-156 -74 0
-156 52 0
-156 -61 0
156 -40 86 58 13 15 -28 2 74 -52 61 0
-157 -54 0
-157 10 0
-157 -23 0
-157 58 0
-157 -88 0
-157 78 0
-157 -49 0
-157 4 0
-157 -57 0
-157 -56 0
157 54 -10 23 -58 88 -78 49 -4 57 56 0
-158 23 0
-158 71 0
-158 -25 0
-158 -27 0
-158 61 0
-158 -4 0
-158 -35 0
-158 97 0
-158 89 0
-158 -68 0
158 -23 -71 25 27 -61 4 35 -97 -89 68 0
-159 -35 0
-159 61 0
-159 -8 0
-159 85 0
-159 89 0
-159 -32 0
-159 -1 0
-159 -20 0
-159 -25 0
-159 45 0
159 35 -61 8 -85 -89 32 1 20 25 -45 0
-160 7 0
-160 -55 0
-160 90 0
-160 35 0
-160 77 0
-160 99 0
-160 50 0
-160 63 0
-160 -73 0
-160 32 0
160 -7 55 -90 -35 -77 -99 -50 -63 73 -32 0
151 152 153 154 155 156 157 158 159 160 0
-161 -100 0
-161 -73 0
-161 -57 0
-161 -65 0
-161 -66 0
-161 98 0
-161 47 0
-161 38 0
-161 34 0
-161 48 0
161 100 73 57 65 66 -98 -47 -38 -34 -48 0
-162 89 0
-162 -57 0
-162 -100 0
-162 -66 0
-162 -71 0
-162 59 0
-162 -61 0
-162 10 0
-162 -84 0
-162 -37 0
162 -89 57 100 66 71 -59 61 -10 84 37 0
-163 63 0
-163 -35 0
-163 90 0
-163 41 0
-163 -48 0
-163 -2 0
-163 -72 0
-163 -32 0
-163 46 0
-163 -74 0
163 -63 35 -90 -41 48 2 72 32 -46 74 0
-164 56 0
-164 27 0
-164 1 0
-164 -57 0
-164 11 0
-164 20 0
-164 -55 0
-164 -33 0
-164 -61 0
-164 4 0
164 -56 -27 -1 57 -11 -20 55 33 61 -4 0
-165 56 0
-165 -98 0
-165 60 0
-165 8 0
-165 -7 0
-165 73 0
-165 -67 0
-165 86 0
-165 -23 0
-165 24 0
165 -56 98 -60 -8 7 -73 67 -86 23 -24 0
-166 56 0
-166 -42 0
-166 -91 0
-166 -46 0
-166 21 0
-166 -79 0
-166 -60 0
-166 -62 0
-166 -92 0
-166 -41 0
166 -56 42 91 46 -21 79 60 62 92 41 0
-167 97 0
-167 -88 0
-167 52 0
-167 7 0
-167 -49 0
-167 13 0
-167 -77 0
-167 -24 0
-167 6 0
-167 33 0
167 -97 88 -52 -7 49 -13 77 24 -6 -33 0
-168 -29 0
-168 -95 0
-168 33 0
-168 28 0
-168 -62 0
-168 -52 0
-168 65 0
-168 -19 0
-168 -64 0
-168 -2 0
168 29 95 -33 -28 62 52 -65 19 64 2 0
-169 -100 0
-169 74 0
-169 49 0
-169 -77 0
-169 -26 0
-169 -61 0
-169 65 0
-169 -91 0
-169 14 0
-169 17 0
169 100 -74 -49 77 26 61 -65 91 -14 -17 0
-170 85 0
-170 25 0
-170 2 0
-170 -6 0
-170 41 0
-170 -48 0
-170 23 0
-170 8 0
-170 -16 0
-170 14 0
170 -85 -25 -2 6 -41 48 -23 -8 16 -14 0
161 162 163 164 165 166 167 168 169 170 0
-171 21 0
-171 -74 0
-171 87 0
-171 97 0
-171 70 0
-171 -75 0
-171 14 0
-171 -40 0
-171 22 0
-171 23 0
171 -21 74 -87 -97 -70 75 -14 40 -22 -23 0
-172 -79 0
-172 51 0
-172 24 0
-172 -78 0
-172 16 0
-172 85 0
-172 -80 0
-172 -33 0
-172 -53 0
-172 -50 0
172 79 -51 -24 78 -16 -85 80 33 53 50 0
-173 -14 0
-173 55 0
-173 59 0
-173 -81 0
-173 10 0
-173 25 0
-173 63 0
-173 22 0
-173 -19 0
-173 31 0
173 14 -55 -59 81 -10 -25 -63 -22 19 -31 0
-174 5 0
-174 91 0
-174 90 0
-174 -98 0
-174 -47 0
-174 -40 0
-174 -57 0
-174 -70 0
-174 -9 0
-174 32 0
174 -5 -91 -90 98 47 40 57 70 9 -32 0
-175 22 0
-175 87 0
-175 -8 0
-175 -19 0
-175 99 0
-175 29 0
-175 1 0
-175 -20 0
-175 37 0
-175 -38 0
175 -22 -87 8 19 -99 -29 -1 20 -37 38 0
-176 -65 0
-176 78 0
-176 87 0
-176 56 0
-176 -20 0
-176 8 0
-176 70 0
-176 -33 0
-176 16 0
-176 -74 0
176 65 -78 -87 -56 20 -8 -70 33 -16 74 0
-177 -28 0
-177 56 0
-177 100 0
-177 20 0
-177 50 0
-177 35 0
-177 83 0
-177 88 0
-177 -84 0
-177 -17 0
177 28 -56 -100 -20 -50 -35 -83 -88 84 17 0
-178 -69 0
-178 -2 0
-178 -81 0
-178 -58 0
-178 98 0
-178 48 0
-178 85 0
-178 -28 0
-178 -31 0
-178 -32 0
178 69 2 81 58 -98 -48 -85 28 31 32 0
-179 -37 0
-179 -94 0
-179 -70 0
-179 -55 0
-179 -95 0
-179 -48 0
-179 54 0
-179 53 0
-179 -100 0
-179 -60 0
179 37 94 70 55 95 48 -54 -53 100 60 0
-180 -70 0
-180 93 0
-180 51 0
-180 -80 0
-180 -9 0
-180 -91 0
-180 61 0
-180 95 0
-180 -16 0
-180 42 0
180 70 -93 -51 80 9 91 -61 -95 16 -42 0
171 172 173 174 175 176 177 178 179 180 0
-181 -71 0
-181 35 0
-181 63 0
-181 -40 0
-181 -21 0
-181 -92 0
-181 -27 0
-181 -85 0
-181 -52 0
-181 66 0
181 71 -35 -63 40 21 92 27 85 52 -66 0
-182 34 0
-182 47 0
-182 55 0
-182 62 0
-182 24 0
-182 -98 0
-182 -95 0
-182 -46 0
-182 -51 0
-182 56 0
182 -34 -47 -55 -62 -24 98 95 46 51 -56 0
-183 -58 0
-183 87 0
-183 -91 0
-183 86 0
-183 -85 0
-183 -4 0
-183 81 0
-183 9 0
-183 96 0
-183 60 0
183 58 -87 91 -86 85 4 -81 -9 -96 -60 0
-184 -77 0
-184 -40 0
-184 10 0
-184 48 0
-184 -13 0
-184 74 0
-184 68 0
-184 -23 0
-184 -22 0
-184 -30 0
184 77 40 -10 -48 13 -74 -68 23 22 30 0
-185 32 0
-185 -91 0
-185 20 0
-185 -1 0
-185 43 0
-185 52 0
-185 11 0
-185 -47 0
-185 26 0
-185 50 0
185 -32 91 -20 1 -43 -52 -11 47 -26 -50 0
-186 82 0
-186 27 0
-186 -18 0
-186 -60 0
-186 -40 0
-186 -94 0
-186 -65 0
-186 -5 0
-186 -31 0
-186 56 0
186 -82 -27 18 60 40 94 65 5 31 -56 0
-187 66 0
-187 47 0
-187 50 0
-187 -20 0
-187 53 0
-187 -60 0
-187 72 0
-187 19 0
-187 -9 0
-187 30 0
187 -66 -47 -50 20 -53 60 -72 -19 9 -30 0
-188 -57 0
-188 1 0
-188 -59 0
-188 -96 0
-188 -62 0
-188 32 0
-188 -75 0
-188 -85 0
-188 67 0
-188 82 0
188 57 -1 59 96 62 -32 75 85 -67 -82 0
-189 91 0
-189 45 0
-189 89 0
-189 72 0
-189 -73 0
-189 53 0
-189 -90 0
-189 47 0
-189 7 0
-189 -50 0
189 -91 -45 -89 -72 73 -53 90 -47 -7 50 0
-190 73 0
-190 33 0
-190 -2 0
-190 50 0
-190 100 0
-190 42 0
-190 6 0
-190 -63 0
-190 4 0
-190 -56 0
190 -73 -33 2 -50 -100 -42 -6 63 -4 56 0
181 182 183 184 185 186 187 188 189 190 0
-191 15 0
-191 82 0
-191 90 0
-191 -73 0
-191 -84 0
-191 6 0
-191 86 0
-191 94 0
-191 31 0
-191 -7 0
191 -15 -82 -90 73 84 -6 -86 -94 -31 7 0
-192 -90 0
-192 42 0
-192 1 0
-192 11 0
-192 75 0
-192 16 0
-192 -79 0
-192 -67 0
-192 78 0
-192 32 0
192 90 -42 -1 -11 -75 -16 79 67 -78 -32 0
-193 25 0
-193 64 0
-193 -89 0
-193 -37 0
-193 -62 0
-193 53 0
-193 -78 0
-193 -97 0
-193 -95 0
-193 36 0
193 -25 -64 89 37 62 -53 78 97 95 -36 0
-194 -53 0
-194 -42 0
-194 11 0
-194 -16 0
-194 -76 0
-194 -85 0
-194 -29 0
-194 -58 0
-194 91 0
-194 -38 0
194 53 42 -11 16 76 85 29 58 -91 38 0
-195 -71 0
-195 66 0
-195 31 0
-195 77 0
-195 79 0
-195 -24 0
-195 4 0
-195 49 0
-195 62 0
-195 -73 0
195 71 -66 -31 -77 -79 24 -4 -49 -62 73 0
-196 92 0
-196 -76 0
-196 99 0
-196 81 0
-196 -83 0
-196 67 0
-196 18 0
-196 12 0
-196 -7 0
-196 -29 0
196 -92 76 -99 -81 83 -67 -18 -12 7 29 0
-197 -79 0
-197 -39 0
-197 88 0
-197 5 0
-197 18 0
-197 78 0
-197 -67 0
-197 22 0
-197 13 0
-197 25 0
197 79 39 -88 -5 -18 -78 67 -22 -13 -25 0
-198 15 0
-198 16 0
-198 -87 0
-198 85 0
-198 84 0
-198 -93 0
-198 37 0
-198 -13 0
-198 65 0
-198 83 0
198 -15 -16 87 -85 -84 93 -37 13 -65 -83 0
-199 -49 0
-199 19 0
-199 -31 0
-199 66 0
-199 68 0
-199 -50 0
-199 -67 0
-199 -96 0
-199 -53 0
-199 -47 0
199 49 -19 31 -66 -68 50 67 96 53 47 0
-200 65 0
-200 70 0
-200 82 0
-200 86 0
-200 -71 0
-200 94 0
-200 -91 0
-200 56 0
-200 -2 0
-200 85 0
200 -65 -70 -82 -86 71 -94 91 -56 2 -85 0
191 192 193 194 195 196 197 198 199 200 0
